(set-info :smt-lib-version 2.6)
(set-logic QF_SLIA)
(set-info :source |
Generated by: Dmitry Blotsky1, Federico Mora, Murphy Berzish, Yunhui Zheng, Ifaz Kabir, Vijay Ganesh, Zhengyang Lu
Generated on: 2018-01-24
Generator: StringFuzz
Application: Evaluate string solvers
Target solver: Z3str3, CVC4, Z3str2, Norn
Publications: Blotsky, D., Mora, F., Berzish, M., Zheng, Y., Kabir, I., & Ganesh, V. (2018). Stringfuzz: A fuzzer for string solvers. In CAV 2018.
Description: new instance generated by StringFuzz, a modular string and regex fuzzer
|)
(set-info :license "https://creativecommons.org/licenses/by/4.0/")
(set-info :category "random")
(set-info :status unknown)

(declare-fun var0 () String)
(assert (str.in_re var0 (re.++ (re.* (re.* (str.to_re "0"))) (re.++ (re.* (re.+ (str.to_re "111"))) (re.++ (re.+ (re.+ (str.to_re "2"))) (re.++ (re.+ (re.union (str.to_re "3") (str.to_re "4"))) (re.++ (re.union (re.* (str.to_re "5")) (re.* (str.to_re "6"))) (re.++ (re.union (re.* (str.to_re "777")) (re.* (str.to_re "88"))) (re.++ (re.+ (re.* (str.to_re "999"))) (re.++ (re.* (re.* (str.to_re "a"))) (re.++ (re.union (re.* (str.to_re "bb")) (re.+ (str.to_re "ccc"))) (re.++ (re.* (re.* (str.to_re "d"))) (re.++ (re.+ (re.* (str.to_re "eee"))) (re.++ (re.+ (re.union (str.to_re "fff") (str.to_re "g"))) (re.++ (re.* (re.+ (str.to_re "hhh"))) (re.++ (re.union (re.+ (str.to_re "i")) (re.* (str.to_re "jjj"))) (re.++ (re.+ (re.+ (str.to_re "kk"))) (re.++ (re.* (re.+ (str.to_re "lll"))) (re.++ (re.+ (re.union (str.to_re "mmm") (str.to_re "nn"))) (re.++ (re.* (re.union (str.to_re "oo") (str.to_re "p"))) (re.++ (re.union (re.union (str.to_re "qq") (str.to_re "rrr")) (re.* (str.to_re "sss"))) (re.++ (re.union (re.+ (str.to_re "t")) (re.union (str.to_re "uu") (str.to_re "v"))) (re.++ (re.* (re.union (str.to_re "ww") (str.to_re "x"))) (re.++ (re.* (re.+ (str.to_re "y"))) (re.++ (re.* (re.union (str.to_re "z") (str.to_re "AA"))) (re.++ (re.+ (re.+ (str.to_re "BB"))) (re.++ (re.+ (re.union (str.to_re "CC") (str.to_re "D"))) (re.++ (re.union (re.union (str.to_re "E") (str.to_re "FFF")) (re.* (str.to_re "G"))) (re.++ (re.union (re.+ (str.to_re "HHH")) (re.+ (str.to_re "I"))) (re.++ (re.+ (re.* (str.to_re "JJJ"))) (re.* (re.union (str.to_re "K") (str.to_re "L")))))))))))))))))))))))))))))))))
(check-sat)
(exit)
